<?xml version = "1.0" standalone="yes"?>
<!-- This file has been generated by DOcplex version 2.23.222  -->
<CPLEXSolution version="1.0">
 <header
   problemName="CVRP"
   objectiveValue="16331"
  />
 <variables>
  <variable name="x_0_2" index="1" value="1.00000"/>
  <variable name="x_0_4" index="3" value="1.00000"/>
  <variable name="x_0_8" index="7" value="1.00000"/>
  <variable name="x_0_9" index="8" value="1.00000"/>
  <variable name="x_0_10" index="9" value="1.00000"/>
  <variable name="x_0_14" index="13" value="1.00000"/>
  <variable name="x_0_15" index="14" value="1.00000"/>
  <variable name="x_0_16" index="15" value="1.00000"/>
  <variable name="x_0_17" index="16" value="1.00000"/>
  <variable name="x_0_18" index="17" value="1.00000"/>
  <variable name="x_0_22" index="21" value="1.00000"/>
  <variable name="x_0_23" index="22" value="1.00000"/>
  <variable name="x_0_25" index="24" value="1.00000"/>
  <variable name="x_0_27" index="26" value="1.00000"/>
  <variable name="x_1_0" index="28" value="1.00000"/>
  <variable name="x_2_0" index="56" value="1.00000"/>
  <variable name="x_3_0" index="84" value="1.00000"/>
  <variable name="x_4_6" index="117" value="1.00000"/>
  <variable name="x_5_1" index="141" value="1.00000"/>
  <variable name="x_6_0" index="168" value="1.00000"/>
  <variable name="x_7_24" index="219" value="1.00000"/>
  <variable name="x_8_20" index="243" value="1.00000"/>
  <variable name="x_9_0" index="252" value="1.00000"/>
  <variable name="x_10_0" index="280" value="1.00000"/>
  <variable name="x_11_0" index="308" value="1.00000"/>
  <variable name="x_12_0" index="336" value="1.00000"/>
  <variable name="x_13_19" index="382" value="1.00000"/>
  <variable name="x_14_13" index="405" value="1.00000"/>
  <variable name="x_15_11" index="431" value="1.00000"/>
  <variable name="x_16_5" index="453" value="1.00000"/>
  <variable name="x_17_7" index="483" value="1.00000"/>
  <variable name="x_18_0" index="504" value="1.00000"/>
  <variable name="x_19_0" index="532" value="1.00000"/>
  <variable name="x_20_28" index="587" value="1.00000"/>
  <variable name="x_21_3" index="591" value="1.00000"/>
  <variable name="x_22_12" index="628" value="1.00000"/>
  <variable name="x_23_26" index="669" value="1.00000"/>
  <variable name="x_24_0" index="672" value="1.00000"/>
  <variable name="x_25_0" index="700" value="1.00000"/>
  <variable name="x_26_21" index="749" value="1.00000"/>
  <variable name="x_27_0" index="756" value="1.00000"/>
  <variable name="x_28_0" index="784" value="1.00000"/>
  <variable name="u_1" index="812" value="51.00000"/>
  <variable name="u_2" index="813" value="63.00000"/>
  <variable name="u_3" index="814" value="63.00000"/>
  <variable name="u_4" index="815" value="37.00000"/>
  <variable name="u_5" index="816" value="35.00000"/>
  <variable name="u_6" index="817" value="63.00000"/>
  <variable name="u_7" index="818" value="30.00000"/>
  <variable name="u_8" index="819" value="15.00000"/>
  <variable name="u_9" index="820" value="46.00000"/>
  <variable name="u_10" index="821" value="51.00000"/>
  <variable name="u_11" index="822" value="63.00000"/>
  <variable name="u_12" index="823" value="63.00000"/>
  <variable name="u_13" index="824" value="42.00000"/>
  <variable name="u_14" index="825" value="18.00000"/>
  <variable name="u_15" index="826" value="23.00000"/>
  <variable name="u_16" index="827" value="8.00000"/>
  <variable name="u_17" index="828" value="1.00000"/>
  <variable name="u_18" index="829" value="45.00000"/>
  <variable name="u_19" index="830" value="57.00000"/>
  <variable name="u_20" index="831" value="41.00000"/>
  <variable name="u_21" index="832" value="60.00000"/>
  <variable name="u_22" index="833" value="20.00000"/>
  <variable name="u_23" index="834" value="11.00000"/>
  <variable name="u_24" index="835" value="61.00000"/>
  <variable name="u_25" index="836" value="59.00000"/>
  <variable name="u_26" index="837" value="44.00000"/>
  <variable name="u_27" index="838" value="62.00000"/>
  <variable name="u_28" index="839" value="53.00000"/>
 </variables>
</CPLEXSolution>
